solving instance uflp nldep holmberg 60 sqrt
Couenne 0.5.8 -- an Open-Source solver for Mixed Integer Nonlinear Optimization
Mailing list: couenne@list.coin-or.org
Instructions: http://www.coin-or.org/Couenne
couenne: 
ANALYSIS TEST: Reformulating problem: 9.9 seconds
NLP0012I 
              Num      Status      Obj             It       time                 Location
NLP0014I             1         OPT 11581.827       45 123.09182
Couenne: new cutoff value 1.1581819063e+04 (133.036 seconds)
Loaded instance "/tmp/jl_S9pmuB/model.nl"
Constraints:         6260
Variables:           6090 (30 integer)
Auxiliaries:          289 (0 integer)

Coin0506I Presolve 6441 (-30) rows, 6121 (-258) columns and 30481 (-288) elements
Clp0006I 0  Obj 0.00015 Primal inf 199.9998 (200) Dual inf 6e+15 (6000)
Clp0006I 286  Obj 11914 Primal inf 132.40356 (86) Dual inf 3.7363322e+14 (2472)
Clp0006I 553  Obj 21809.614 Primal inf 97.472159 (47) Dual inf 2.0503085e+14 (2117)
Clp0006I 668  Obj 24228.647 Primal inf 90.134665 (47) Dual inf 1.7808629e+13 (2098)
Clp0006I 819  Obj 30122.681 Primal inf 84.768124 (43) Dual inf 3.3253987e+13 (2141)
Clp0006I 960  Obj 30971.953 Primal inf 82.5747 (41) Dual inf 1.5040003e+13 (2142)
Clp0006I 1117  Obj 32258.908 Primal inf 81.605069 (40) Dual inf 1.3857911e+13 (2072)
Clp0006I 1274  Obj 33869.72 Primal inf 79.002217 (42) Dual inf 1.1481081e+13 (2104)
Clp0006I 1469  Obj 36096.588 Primal inf 76.681248 (41) Dual inf 1.0585128e+13 (1899)
Clp0006I 1669  Obj 36150.822 Primal inf 76.596972 (39) Dual inf 1.0131599e+13 (1726)
Clp0006I 1826  Obj 39926.2 Primal inf 72.712903 (40) Dual inf 9.5218127e+12 (1650)
Clp0006I 2029  Obj 40004.482 Primal inf 72.678359 (42) Dual inf 9.170951e+12 (1463)
Clp0006I 2205  Obj 41828.746 Primal inf 68.872149 (38) Dual inf 8.2113898e+12 (1374)
Clp0006I 2387  Obj 43926.338 Primal inf 65.033646 (37) Dual inf 1.0021818e+13 (1558)
Clp0006I 2552  Obj 57011.197 Primal inf 43.082044 (47) Dual inf 1.516881e+13 (1952)
Clp0006I 2752  Obj 62807.608 Primal inf 32.313809 (43) Dual inf 7.0501681e+12 (2248)
Clp0006I 2956  Obj 52498.473 Primal inf 0.57862606 (19) Dual inf 8.9091733e+10 (2286)
Clp0006I 3162  Obj 51992.146 Primal inf 0.46336618 (3) Dual inf 7.1113433e+11 (2315)
Clp0006I 3329  Obj 51992.143 Primal inf 0.46336612 (3) Dual inf 7.2295158e+11 (2017)
Clp0006I 3482  Obj 51624.117 Primal inf 0.45932624 (3) Dual inf 6.415529e+11 (2190)
Clp0006I 3650  Obj 51624.067 Primal inf 0.45932512 (3) Dual inf 6.104259e+11 (2115)
Clp0006I 3800  Obj 51623.951 Primal inf 0.45932354 (3) Dual inf 1.1505338e+12 (1806)
Clp0006I 3951  Obj 51623.777 Primal inf 0.45932156 (3) Dual inf 8.5330411e+11 (2088)
Clp0006I 4120  Obj 50211.458 Primal inf 0.43403252 (2) Dual inf 1.3344443e+12 (1864)
Clp0006I 4277  Obj 50211.347 Primal inf 0.43403073 (2) Dual inf 9.4144631e+11 (1714)
Clp0006I 4446  Obj 50211.071 Primal inf 0.43402771 (2) Dual inf 4.5530541e+11 (2671)
Clp0006I 4595  Obj 49625.968 Primal inf 0.42760506 (2) Dual inf 4.062065e+11 (1731)
Clp0006I 4780  Obj 48583.786 Primal inf 0.40616757 (1) Dual inf 2.5716973e+11 (2351)
Clp0006I 4947  Obj 48583.33 Primal inf 0.40616257 (1) Dual inf 2.4510718e+11 (2251)
Clp0006I 5155  Obj 45294.226 Primal inf 0.37005824 (1) Dual inf 3.7742838e+11 (2285)
Clp0006I 5353  Obj 40562.315 Primal inf 0.3181163 (1) Dual inf 6.724659e+11 (2156)
Clp0006I 5560  Obj 36134.053 Primal inf 0.26950749 (1) Dual inf 7.3535385e+11 (1943)
Clp0006I 5764  Obj 35780.713 Primal inf 0.2656289 (1) Dual inf 1.0655213e+10 (1201)
Clp0006I 5968  Obj 35053.556 Primal inf 0.25764693 (1) Dual inf 9.7657761e+09 (1085)
Clp0006I 6171  Obj 32488.458 Primal inf 0.22948999 (1) Dual inf 7.5570338e+09 (888)
Clp0006I 6374  Obj 31344.327 Primal inf 0.21693092 (1) Dual inf 3.9108423e+09 (597)
Clp0006I 6568  Obj 30699.754 Primal inf 0.20985547 (1) Dual inf 4.7786361e+09 (869)
Clp0006I 6768  Obj 26283.974 Primal inf 0.16138369 (1) Dual inf 2.3275025e+10 (785)
Clp0006I 6971  Obj 24128.76 Primal inf 0.13772602 (1) Dual inf 1.390784e+10 (685)
Clp0006I 7174  Obj 23125.065 Primal inf 0.12670851 (1) Dual inf 2.868658e+09 (597)
Clp0006I 7377  Obj 22730.576 Primal inf 0.12237822 (1) Dual inf 6.5841604e+09 (505)
Clp0006I 7546  Obj 21698.309 Primal inf 0.11104708 (1) Dual inf 3.6554898e+10 (504)
Clp0006I 7716  Obj 20236.94 Primal inf 0.095005711 (1) Dual inf 1.077231e+10 (352)
Clp0006I 7878  Obj 17045.699 Primal inf 0.059975623 (1) Dual inf 1.7076166e+09 (296)
Clp0006I 8073  Obj 15722.407 Primal inf 0.045449911 (1) Dual inf 1.178088e+09 (245)
Clp0006I 8276  Obj 12681.331 Primal inf 0.012068179 (1) Dual inf 1.0368207e+09 (147)
Clp0006I 8462  Obj 9376.2852
Clp0000I Optimal - objective value 9376.2852
Clp0000I Optimal - objective value 9382.0001
Clp0032I Optimal objective 9382.000145 - 8462 iterations time 4.532, Presolve 0.03
Clp0000I Optimal - objective value 9382.0001
NLP Heuristic: NLP0014I             2         OPT 11581.827       16 2.035096
no solution.
Clp0000I Optimal - objective value 9382.0001
Optimality Based BT: 0 improved bounds
Probing: 0 improved bounds
NLP Heuristic: no solution.
Cbc0013I At root node, 0 cuts changed objective from 9382.0001 to 9382.0001 in 1 passes
Cbc0014I Cut generator 0 (Couenne convexifier cuts) - 0 row cuts average 0.0 elements, 0 column cuts (0 active)
Cbc0010I After 0 nodes, 1 on tree, 1e+50 best solution, best possible -1.7976931e+308 (60.06 seconds)
Optimality Based BT: 0 improved bounds
Optimality Based BT: 0 improved bounds
Cbc0010I After 100 nodes, 1 on tree, 1e+50 best solution, best possible -1.7976931e+308 (228.98 seconds)
Cbc0010I After 200 nodes, 34 on tree, 1e+50 best solution, best possible 10418.269 (238.18 seconds)
Cbc0010I After 300 nodes, 80 on tree, 1e+50 best solution, best possible 10418.269 (250.60 seconds)
Cbc0010I After 400 nodes, 99 on tree, 1e+50 best solution, best possible 10418.269 (266.22 seconds)
Cbc0010I After 500 nodes, 108 on tree, 1e+50 best solution, best possible 10418.269 (277.04 seconds)
Cbc0010I After 600 nodes, 134 on tree, 1e+50 best solution, best possible 10418.269 (285.46 seconds)
Cbc0010I After 700 nodes, 174 on tree, 1e+50 best solution, best possible 10418.269 (295.09 seconds)
Cbc0010I After 800 nodes, 223 on tree, 1e+50 best solution, best possible 10418.269 (305.76 seconds)
Cbc0010I After 900 nodes, 271 on tree, 1e+50 best solution, best possible 10418.269 (317.21 seconds)
Cbc0010I After 1000 nodes, 310 on tree, 1e+50 best solution, best possible 10430.684 (329.49 seconds)
Cbc0010I After 1100 nodes, 339 on tree, 1e+50 best solution, best possible 10449.352 (341.25 seconds)
Cbc0010I After 1200 nodes, 367 on tree, 1e+50 best solution, best possible 10449.352 (352.44 seconds)
Cbc0010I After 1300 nodes, 390 on tree, 1e+50 best solution, best possible 10450.37 (363.35 seconds)
Cbc0010I After 1400 nodes, 426 on tree, 1e+50 best solution, best possible 10477.799 (374.62 seconds)
Cbc0010I After 1500 nodes, 465 on tree, 1e+50 best solution, best possible 10477.799 (390.03 seconds)
Cbc0010I After 1600 nodes, 504 on tree, 1e+50 best solution, best possible 10485.698 (401.95 seconds)
Cbc0010I After 1700 nodes, 532 on tree, 1e+50 best solution, best possible 10485.698 (417.98 seconds)
Cbc0010I After 1800 nodes, 558 on tree, 1e+50 best solution, best possible 10513.501 (430.28 seconds)
Cbc0010I After 1900 nodes, 598 on tree, 1e+50 best solution, best possible 10513.501 (445.43 seconds)
Cbc0010I After 2000 nodes, 622 on tree, 1e+50 best solution, best possible 10516.921 (456.66 seconds)
Cbc0010I After 2100 nodes, 660 on tree, 1e+50 best solution, best possible 10518.538 (468.50 seconds)
Cbc0010I After 2200 nodes, 693 on tree, 1e+50 best solution, best possible 10518.538 (484.32 seconds)
Cbc0010I After 2300 nodes, 733 on tree, 1e+50 best solution, best possible 10539.071 (496.55 seconds)
Cbc0010I After 2400 nodes, 760 on tree, 1e+50 best solution, best possible 10539.504 (512.05 seconds)
Cbc0010I After 2500 nodes, 806 on tree, 1e+50 best solution, best possible 10539.504 (524.57 seconds)
Cbc0010I After 2600 nodes, 826 on tree, 1e+50 best solution, best possible 10539.504 (540.69 seconds)
Cbc0010I After 2700 nodes, 870 on tree, 1e+50 best solution, best possible 10541.122 (552.47 seconds)
Cbc0010I After 2800 nodes, 907 on tree, 1e+50 best solution, best possible 10551.023 (564.61 seconds)
Cbc0010I After 2900 nodes, 945 on tree, 1e+50 best solution, best possible 10561.073 (577.25 seconds)
Cbc0010I After 3000 nodes, 975 on tree, 1e+50 best solution, best possible 10569.665 (592.18 seconds)
Cbc0010I After 3100 nodes, 999 on tree, 1e+50 best solution, best possible 10569.665 (602.80 seconds)
Cbc0010I After 3200 nodes, 1047 on tree, 1e+50 best solution, best possible 10572.597 (615.26 seconds)
Cbc0010I After 3300 nodes, 1067 on tree, 1e+50 best solution, best possible 10579.842 (631.15 seconds)
Cbc0010I After 3400 nodes, 1113 on tree, 1e+50 best solution, best possible 10579.842 (643.49 seconds)
Cbc0010I After 3500 nodes, 1154 on tree, 1e+50 best solution, best possible 10580.243 (655.42 seconds)
Cbc0010I After 3600 nodes, 1193 on tree, 1e+50 best solution, best possible 10581.459 (667.80 seconds)
Cbc0010I After 3700 nodes, 1233 on tree, 1e+50 best solution, best possible 10581.86 (680.51 seconds)
Cbc0010I After 3800 nodes, 1273 on tree, 1e+50 best solution, best possible 10584.115 (693.26 seconds)
Cbc0010I After 3900 nodes, 1313 on tree, 1e+50 best solution, best possible 10584.549 (706.09 seconds)
Cbc0010I After 4000 nodes, 1350 on tree, 1e+50 best solution, best possible 10584.549 (720.60 seconds)
Cbc0010I After 4100 nodes, 1396 on tree, 1e+50 best solution, best possible 10588.729 (733.15 seconds)
Cbc0010I After 4200 nodes, 1436 on tree, 1e+50 best solution, best possible 10589.697 (745.50 seconds)
Cbc0010I After 4300 nodes, 1470 on tree, 1e+50 best solution, best possible 10591.36 (759.27 seconds)
Cbc0010I After 4400 nodes, 1505 on tree, 1e+50 best solution, best possible 10591.762 (773.47 seconds)
Cbc0010I After 4500 nodes, 1547 on tree, 1e+50 best solution, best possible 10591.762 (787.00 seconds)
Cbc0010I After 4600 nodes, 1590 on tree, 1e+50 best solution, best possible 10596.942 (799.72 seconds)
Cbc0010I After 4700 nodes, 1625 on tree, 1e+50 best solution, best possible 10597.344 (813.29 seconds)
Cbc0010I After 4800 nodes, 1660 on tree, 1e+50 best solution, best possible 10601.551 (826.55 seconds)
Cbc0010I After 4900 nodes, 1694 on tree, 1e+50 best solution, best possible 10603.191 (840.31 seconds)
Cbc0010I After 5000 nodes, 1718 on tree, 1e+50 best solution, best possible 10603.191 (850.98 seconds)
Cbc0010I After 5100 nodes, 1763 on tree, 1e+50 best solution, best possible 10617.641 (863.23 seconds)
Cbc0010I After 5200 nodes, 1802 on tree, 1e+50 best solution, best possible 10620.199 (875.37 seconds)
Cbc0010I After 5300 nodes, 1842 on tree, 1e+50 best solution, best possible 10621.167 (887.97 seconds)
Cbc0010I After 5400 nodes, 1877 on tree, 1e+50 best solution, best possible 10622.126 (901.65 seconds)
Cbc0010I After 5500 nodes, 1913 on tree, 1e+50 best solution, best possible 10622.255 (915.35 seconds)
Cbc0010I After 5600 nodes, 1957 on tree, 1e+50 best solution, best possible 10622.255 (928.81 seconds)
Cbc0010I After 5700 nodes, 1998 on tree, 1e+50 best solution, best possible 10623.095 (941.56 seconds)
Cbc0010I After 5800 nodes, 2040 on tree, 1e+50 best solution, best possible 10623.223 (954.14 seconds)
Cbc0010I After 5900 nodes, 2075 on tree, 1e+50 best solution, best possible 10624.886 (967.22 seconds)
Cbc0010I After 6000 nodes, 2116 on tree, 1e+50 best solution, best possible 10625.288 (979.88 seconds)
Cbc0010I After 6100 nodes, 2157 on tree, 1e+50 best solution, best possible 10628.412 (992.59 seconds)
Cbc0010I After 6200 nodes, 2199 on tree, 1e+50 best solution, best possible 10628.814 (1005.25 seconds)
Cbc0010I After 6300 nodes, 2236 on tree, 1e+50 best solution, best possible 10630.34 (1018.57 seconds)
Cbc0010I After 6400 nodes, 2277 on tree, 1e+50 best solution, best possible 10630.34 (1032.08 seconds)
Cbc0010I After 6500 nodes, 2321 on tree, 1e+50 best solution, best possible 10630.468 (1044.45 seconds)
Cbc0010I After 6600 nodes, 2359 on tree, 1e+50 best solution, best possible 10630.741 (1056.99 seconds)
Cbc0010I After 6700 nodes, 2401 on tree, 1e+50 best solution, best possible 10630.87 (1069.53 seconds)
Cbc0010I After 6800 nodes, 2437 on tree, 1e+50 best solution, best possible 10636.577 (1082.68 seconds)
Cbc0010I After 6900 nodes, 2480 on tree, 1e+50 best solution, best possible 10637.545 (1095.37 seconds)
Cbc0010I After 7000 nodes, 2519 on tree, 1e+50 best solution, best possible 10642.159 (1108.57 seconds)
Cbc0010I After 7100 nodes, 2558 on tree, 1e+50 best solution, best possible 10643.127 (1121.58 seconds)
Cbc0010I After 7200 nodes, 2597 on tree, 1e+50 best solution, best possible 10644.79 (1134.62 seconds)
Cbc0010I After 7300 nodes, 2636 on tree, 1e+50 best solution, best possible 10645.191 (1147.49 seconds)
Cbc0010I After 7400 nodes, 2679 on tree, 1e+50 best solution, best possible 10645.191 (1160.60 seconds)
Cbc0010I After 7500 nodes, 2723 on tree, 1e+50 best solution, best possible 10650.372 (1173.39 seconds)
Cbc0010I After 7600 nodes, 2767 on tree, 1e+50 best solution, best possible 10650.773 (1186.40 seconds)
Cbc0010I After 7700 nodes, 2808 on tree, 1e+50 best solution, best possible 10653.725 (1198.83 seconds)
Cbc0010I After 7800 nodes, 2849 on tree, 1e+50 best solution, best possible 10654.693 (1211.63 seconds)
Cbc0010I After 7900 nodes, 2890 on tree, 1e+50 best solution, best possible 10655.652 (1224.53 seconds)
Cbc0010I After 8000 nodes, 2931 on tree, 1e+50 best solution, best possible 10656.621 (1236.91 seconds)
Cbc0010I After 8100 nodes, 2971 on tree, 1e+50 best solution, best possible 10661.938 (1249.57 seconds)
Cbc0010I After 8200 nodes, 3011 on tree, 1e+50 best solution, best possible 10662.34 (1262.03 seconds)
Cbc0010I After 8300 nodes, 3054 on tree, 1e+50 best solution, best possible 10663.866 (1274.74 seconds)
Cbc0010I After 8400 nodes, 3097 on tree, 1e+50 best solution, best possible 10664.267 (1287.38 seconds)
Cbc0010I After 8500 nodes, 3139 on tree, 1e+50 best solution, best possible 10670.103 (1299.88 seconds)
Cbc0010I After 8600 nodes, 3181 on tree, 1e+50 best solution, best possible 10670.707 (1312.58 seconds)
Cbc0010I After 8700 nodes, 3223 on tree, 1e+50 best solution, best possible 10671.071 (1325.19 seconds)
Cbc0010I After 8800 nodes, 3261 on tree, 1e+50 best solution, best possible 10671.675 (1337.98 seconds)
Cbc0010I After 8900 nodes, 3303 on tree, 1e+50 best solution, best possible 10672.634 (1350.62 seconds)
Cbc0010I After 9000 nodes, 3340 on tree, 1e+50 best solution, best possible 10673.602 (1363.35 seconds)
Cbc0010I After 9100 nodes, 3378 on tree, 1e+50 best solution, best possible 10675.684 (1376.04 seconds)
Cbc0010I After 9200 nodes, 3416 on tree, 1e+50 best solution, best possible 10676.653 (1388.82 seconds)
Cbc0010I After 9300 nodes, 3458 on tree, 1e+50 best solution, best possible 10678.316 (1401.59 seconds)
Cbc0010I After 9400 nodes, 3501 on tree, 1e+50 best solution, best possible 10678.717 (1414.32 seconds)
Cbc0010I After 9500 nodes, 3545 on tree, 1e+50 best solution, best possible 10678.92 (1426.98 seconds)
Cbc0010I After 9600 nodes, 3588 on tree, 1e+50 best solution, best possible 10679.321 (1439.75 seconds)
Cbc0010I After 9700 nodes, 3628 on tree, 1e+50 best solution, best possible 10680.847 (1452.49 seconds)
Cbc0010I After 9800 nodes, 3669 on tree, 1e+50 best solution, best possible 10681.249 (1465.41 seconds)
Cbc0010I After 9900 nodes, 3708 on tree, 1e+50 best solution, best possible 10683.898 (1477.86 seconds)
Cbc0010I After 10000 nodes, 3748 on tree, 1e+50 best solution, best possible 10684.299 (1490.44 seconds)
Cbc0010I After 10100 nodes, 3792 on tree, 1e+50 best solution, best possible 10687.084 (1503.01 seconds)
Cbc0010I After 10200 nodes, 3835 on tree, 1e+50 best solution, best possible 10688.053 (1515.71 seconds)
Cbc0010I After 10300 nodes, 3876 on tree, 1e+50 best solution, best possible 10689.63 (1528.37 seconds)
Cbc0010I After 10400 nodes, 3916 on tree, 1e+50 best solution, best possible 10690.031 (1540.94 seconds)
Cbc0010I After 10500 nodes, 3956 on tree, 1e+50 best solution, best possible 10690.031 (1554.63 seconds)
Cbc0010I After 10600 nodes, 4000 on tree, 1e+50 best solution, best possible 10691.557 (1567.90 seconds)
Cbc0010I After 10700 nodes, 4043 on tree, 1e+50 best solution, best possible 10691.959 (1580.92 seconds)
Cbc0010I After 10800 nodes, 4082 on tree, 1e+50 best solution, best possible 10692.666 (1593.54 seconds)
Cbc0010I After 10900 nodes, 4120 on tree, 1e+50 best solution, best possible 10693.635 (1606.57 seconds)
Cbc0010I After 11000 nodes, 4161 on tree, 1e+50 best solution, best possible 10694.508 (1619.15 seconds)
Cbc0010I After 11100 nodes, 4201 on tree, 1e+50 best solution, best possible 10695.298 (1631.59 seconds)
Cbc0010I After 11200 nodes, 4242 on tree, 1e+50 best solution, best possible 10695.477 (1644.41 seconds)
Cbc0010I After 11300 nodes, 4283 on tree, 1e+50 best solution, best possible 10695.699 (1656.89 seconds)
Cbc0010I After 11400 nodes, 4323 on tree, 1e+50 best solution, best possible 10695.943 (1669.88 seconds)
Cbc0010I After 11500 nodes, 4365 on tree, 1e+50 best solution, best possible 10696.436 (1682.58 seconds)
Cbc0010I After 11600 nodes, 4406 on tree, 1e+50 best solution, best possible 10696.911 (1695.01 seconds)
Cbc0010I After 11700 nodes, 4446 on tree, 1e+50 best solution, best possible 10697.404 (1707.73 seconds)
Cbc0010I After 11800 nodes, 4488 on tree, 1e+50 best solution, best possible 10697.87 (1720.47 seconds)
Cbc0010I After 11900 nodes, 4528 on tree, 1e+50 best solution, best possible 10698.839 (1733.29 seconds)
Cbc0010I After 12000 nodes, 4568 on tree, 1e+50 best solution, best possible 10700.88 (1745.79 seconds)
Cbc0010I After 12100 nodes, 4609 on tree, 1e+50 best solution, best possible 10701.281 (1758.43 seconds)
Cbc0010I After 12200 nodes, 4651 on tree, 1e+50 best solution, best possible 10704.157 (1771.20 seconds)
Cbc0010I After 12300 nodes, 4693 on tree, 1e+50 best solution, best possible 10704.233 (1783.86 seconds)
Cbc0010I After 12400 nodes, 4735 on tree, 1e+50 best solution, best possible 10704.558 (1796.74 seconds)
Cbc0010I After 12500 nodes, 4778 on tree, 1e+50 best solution, best possible 10705.201 (1809.42 seconds)
Cbc0010I After 12600 nodes, 4820 on tree, 1e+50 best solution, best possible 10706.008 (1822.23 seconds)
Cbc0010I After 12700 nodes, 4863 on tree, 1e+50 best solution, best possible 10706.084 (1834.95 seconds)
Cbc0010I After 12800 nodes, 4902 on tree, 1e+50 best solution, best possible 10706.16 (1848.13 seconds)
Cbc0010I After 12900 nodes, 4943 on tree, 1e+50 best solution, best possible 10706.409 (1863.37 seconds)
Cbc0010I After 13000 nodes, 4985 on tree, 1e+50 best solution, best possible 10706.485 (1876.08 seconds)
Cbc0010I After 13100 nodes, 5026 on tree, 1e+50 best solution, best possible 10706.948 (1889.36 seconds)
Cbc0010I After 13200 nodes, 5068 on tree, 1e+50 best solution, best possible 10707.128 (1902.06 seconds)
Cbc0010I After 13300 nodes, 5106 on tree, 1e+50 best solution, best possible 10707.916 (1916.10 seconds)
Cbc0010I After 13400 nodes, 5148 on tree, 1e+50 best solution, best possible 10708.875 (1928.68 seconds)
Cbc0010I After 13500 nodes, 5186 on tree, 1e+50 best solution, best possible 10709.843 (1942.24 seconds)
Cbc0010I After 13600 nodes, 5223 on tree, 1e+50 best solution, best possible 10710.886 (1956.03 seconds)
Cbc0010I After 13700 nodes, 5260 on tree, 1e+50 best solution, best possible 10711.59 (1969.69 seconds)
Cbc0010I After 13800 nodes, 5302 on tree, 1e+50 best solution, best possible 10711.854 (1982.48 seconds)
Cbc0010I After 13900 nodes, 5343 on tree, 1e+50 best solution, best possible 10711.854 (1995.72 seconds)
Cbc0010I After 14000 nodes, 5384 on tree, 1e+50 best solution, best possible 10712.321 (2008.56 seconds)
Cbc0010I After 14100 nodes, 5426 on tree, 1e+50 best solution, best possible 10712.321 (2021.84 seconds)
Cbc0010I After 14200 nodes, 5467 on tree, 1e+50 best solution, best possible 10712.847 (2034.36 seconds)
Cbc0010I After 14300 nodes, 5510 on tree, 1e+50 best solution, best possible 10713.289 (2046.92 seconds)
Cbc0010I After 14400 nodes, 5553 on tree, 1e+50 best solution, best possible 10714.373 (2059.57 seconds)
Cbc0010I After 14500 nodes, 5597 on tree, 1e+50 best solution, best possible 10714.6 (2072.22 seconds)
Cbc0010I After 14600 nodes, 5642 on tree, 1e+50 best solution, best possible 10714.775 (2084.88 seconds)
Cbc0010I After 14700 nodes, 5682 on tree, 1e+50 best solution, best possible 10715.002 (2097.85 seconds)
Cbc0010I After 14800 nodes, 5726 on tree, 1e+50 best solution, best possible 10716.468 (2110.63 seconds)
Cbc0010I After 14900 nodes, 5766 on tree, 1e+50 best solution, best possible 10716.528 (2123.92 seconds)
Cbc0010I After 15000 nodes, 5809 on tree, 1e+50 best solution, best possible 10716.929 (2136.67 seconds)
Cbc0010I After 15100 nodes, 5848 on tree, 1e+50 best solution, best possible 10717.436 (2149.50 seconds)
Cbc0010I After 15200 nodes, 5887 on tree, 1e+50 best solution, best possible 10717.903 (2162.49 seconds)
Cbc0010I After 15300 nodes, 5930 on tree, 1e+50 best solution, best possible 10718.871 (2175.20 seconds)
Cbc0010I After 15400 nodes, 5973 on tree, 1e+50 best solution, best possible 10720.534 (2187.75 seconds)
Cbc0010I After 15500 nodes, 6018 on tree, 1e+50 best solution, best possible 10720.61 (2200.45 seconds)
Cbc0010I After 15600 nodes, 6063 on tree, 1e+50 best solution, best possible 10720.935 (2213.49 seconds)
Cbc0010I After 15700 nodes, 6107 on tree, 1e+50 best solution, best possible 10721.579 (2226.23 seconds)
Cbc0010I After 15800 nodes, 6150 on tree, 1e+50 best solution, best possible 10723.156 (2239.14 seconds)
Cbc0010I After 15900 nodes, 6194 on tree, 1e+50 best solution, best possible 10723.325 (2251.87 seconds)
Cbc0010I After 16000 nodes, 6235 on tree, 1e+50 best solution, best possible 10723.557 (2264.83 seconds)
Cbc0010I After 16100 nodes, 6274 on tree, 1e+50 best solution, best possible 10724.294 (2278.16 seconds)
Cbc0010I After 16200 nodes, 6316 on tree, 1e+50 best solution, best possible 10725.083 (2291.16 seconds)
Cbc0010I After 16300 nodes, 6355 on tree, 1e+50 best solution, best possible 10725.485 (2304.36 seconds)
Cbc0010I After 16400 nodes, 6395 on tree, 1e+50 best solution, best possible 10726.116 (2317.05 seconds)
Cbc0010I After 16500 nodes, 6436 on tree, 1e+50 best solution, best possible 10726.192 (2329.83 seconds)
Cbc0010I After 16600 nodes, 6480 on tree, 1e+50 best solution, best possible 10726.517 (2342.57 seconds)
Cbc0010I After 16700 nodes, 6525 on tree, 1e+50 best solution, best possible 10727.161 (2355.52 seconds)
Cbc0010I After 16800 nodes, 6569 on tree, 1e+50 best solution, best possible 10728.034 (2368.68 seconds)
Cbc0010I After 16900 nodes, 6609 on tree, 1e+50 best solution, best possible 10728.824 (2381.74 seconds)
Cbc0010I After 17000 nodes, 6653 on tree, 1e+50 best solution, best possible 10729.003 (2394.29 seconds)
Cbc0010I After 17100 nodes, 6693 on tree, 1e+50 best solution, best possible 10729.225 (2407.49 seconds)
Cbc0010I After 17200 nodes, 6737 on tree, 1e+50 best solution, best possible 10729.469 (2420.27 seconds)
Cbc0010I After 17300 nodes, 6783 on tree, 1e+50 best solution, best possible 10729.876 (2432.97 seconds)
Cbc0010I After 17400 nodes, 6827 on tree, 1e+50 best solution, best possible 10729.961 (2445.57 seconds)
Cbc0010I After 17500 nodes, 6866 on tree, 1e+50 best solution, best possible 10730.437 (2458.67 seconds)
Cbc0010I After 17600 nodes, 6911 on tree, 1e+50 best solution, best possible 10730.512 (2473.78 seconds)
Cbc0010I After 17700 nodes, 6957 on tree, 1e+50 best solution, best possible 10730.93 (2486.69 seconds)
Cbc0010I After 17800 nodes, 6997 on tree, 1e+50 best solution, best possible 10730.978 (2499.99 seconds)
Cbc0010I After 17900 nodes, 7043 on tree, 1e+50 best solution, best possible 10731.379 (2513.06 seconds)
Cbc0010I After 18000 nodes, 7085 on tree, 1e+50 best solution, best possible 10731.396 (2525.93 seconds)
Cbc0010I After 18100 nodes, 7127 on tree, 1e+50 best solution, best possible 10731.481 (2539.00 seconds)
Cbc0010I After 18200 nodes, 7172 on tree, 1e+50 best solution, best possible 10732.01 (2551.78 seconds)
Cbc0010I After 18300 nodes, 7211 on tree, 1e+50 best solution, best possible 10732.365 (2564.99 seconds)
Cbc0010I After 18400 nodes, 7250 on tree, 1e+50 best solution, best possible 10732.44 (2577.76 seconds)
Cbc0010I After 18500 nodes, 7296 on tree, 1e+50 best solution, best possible 10732.978 (2590.56 seconds)
Cbc0010I After 18600 nodes, 7334 on tree, 1e+50 best solution, best possible 10733.408 (2603.67 seconds)
Cbc0010I After 18700 nodes, 7373 on tree, 1e+50 best solution, best possible 10733.937 (2616.34 seconds)
Cbc0010I After 18800 nodes, 7411 on tree, 1e+50 best solution, best possible 10734.406 (2629.07 seconds)
Cbc0010I After 18900 nodes, 7449 on tree, 1e+50 best solution, best possible 10734.807 (2641.57 seconds)
Cbc0010I After 19000 nodes, 7495 on tree, 1e+50 best solution, best possible 10734.905 (2654.77 seconds)
Cbc0010I After 19100 nodes, 7540 on tree, 1e+50 best solution, best possible 10736.56 (2667.85 seconds)
Cbc0010I After 19200 nodes, 7581 on tree, 1e+50 best solution, best possible 10736.961 (2680.66 seconds)
Cbc0010I After 19300 nodes, 7622 on tree, 1e+50 best solution, best possible 10737.682 (2693.64 seconds)
Cbc0010I After 19400 nodes, 7662 on tree, 1e+50 best solution, best possible 10738.084 (2706.53 seconds)
Cbc0010I After 19500 nodes, 7705 on tree, 1e+50 best solution, best possible 10739.61 (2719.21 seconds)
Cbc0010I After 19600 nodes, 7747 on tree, 1e+50 best solution, best possible 10739.935 (2731.95 seconds)
Cbc0010I After 19700 nodes, 7793 on tree, 1e+50 best solution, best possible 10740.011 (2744.69 seconds)
Cbc0010I After 19800 nodes, 7836 on tree, 1e+50 best solution, best possible 10740.134 (2757.45 seconds)
Cbc0010I After 19900 nodes, 7881 on tree, 1e+50 best solution, best possible 10740.223 (2770.30 seconds)
Cbc0010I After 20000 nodes, 7925 on tree, 1e+50 best solution, best possible 10740.474 (2782.97 seconds)
Cbc0010I After 20100 nodes, 7967 on tree, 1e+50 best solution, best possible 10740.624 (2795.96 seconds)
Cbc0010I After 20200 nodes, 8008 on tree, 1e+50 best solution, best possible 10741.102 (2809.06 seconds)
Cbc0010I After 20300 nodes, 8051 on tree, 1e+50 best solution, best possible 10741.442 (2822.01 seconds)
Cbc0010I After 20400 nodes, 8096 on tree, 1e+50 best solution, best possible 10742.061 (2834.82 seconds)
Cbc0010I After 20500 nodes, 8136 on tree, 1e+50 best solution, best possible 10742.15 (2847.79 seconds)
Cbc0010I After 20600 nodes, 8181 on tree, 1e+50 best solution, best possible 10742.401 (2860.59 seconds)
Cbc0010I After 20700 nodes, 8222 on tree, 1e+50 best solution, best possible 10742.552 (2873.34 seconds)
Cbc0010I After 20800 nodes, 8263 on tree, 1e+50 best solution, best possible 10743.03 (2886.30 seconds)
Cbc0010I After 20900 nodes, 8305 on tree, 1e+50 best solution, best possible 10743.369 (2898.99 seconds)
Cbc0010I After 21000 nodes, 8350 on tree, 1e+50 best solution, best possible 10744.412 (2912.55 seconds)
Cbc0010I After 21100 nodes, 8390 on tree, 1e+50 best solution, best possible 10745.116 (2925.52 seconds)
Cbc0010I After 21200 nodes, 8430 on tree, 1e+50 best solution, best possible 10745.38 (2938.39 seconds)
Cbc0010I After 21300 nodes, 8474 on tree, 1e+50 best solution, best possible 10745.847 (2951.03 seconds)
Cbc0010I After 21400 nodes, 8517 on tree, 1e+50 best solution, best possible 10746.815 (2963.99 seconds)
Cbc0010I After 21500 nodes, 8563 on tree, 1e+50 best solution, best possible 10746.89 (2976.56 seconds)
Cbc0010I After 21600 nodes, 8610 on tree, 1e+50 best solution, best possible 10747.858 (2989.52 seconds)
Cbc0010I After 21700 nodes, 8650 on tree, 1e+50 best solution, best possible 10748.126 (3002.65 seconds)
Cbc0010I After 21800 nodes, 8690 on tree, 1e+50 best solution, best possible 10748.387 (3015.64 seconds)
Cbc0010I After 21900 nodes, 8734 on tree, 1e+50 best solution, best possible 10748.528 (3028.67 seconds)
Cbc0010I After 22000 nodes, 8776 on tree, 1e+50 best solution, best possible 10749.356 (3041.49 seconds)
Cbc0010I After 22100 nodes, 8820 on tree, 1e+50 best solution, best possible 10749.994 (3054.30 seconds)
Cbc0010I After 22200 nodes, 8861 on tree, 1e+50 best solution, best possible 10750.054 (3067.21 seconds)
Cbc0010I After 22300 nodes, 8907 on tree, 1e+50 best solution, best possible 10750.455 (3080.39 seconds)
Cbc0010I After 22400 nodes, 8949 on tree, 1e+50 best solution, best possible 10750.962 (3093.52 seconds)
Cbc0010I After 22500 nodes, 8992 on tree, 1e+50 best solution, best possible 10751.645 (3106.24 seconds)
Cbc0010I After 22600 nodes, 9029 on tree, 1e+50 best solution, best possible 10752.397 (3118.39 seconds)
Cbc0010I After 22700 nodes, 9065 on tree, 1e+50 best solution, best possible 10752.472 (3130.11 seconds)
Cbc0010I After 22800 nodes, 9111 on tree, 1e+50 best solution, best possible 10753.44 (3143.13 seconds)
Cbc0010I After 22900 nodes, 9152 on tree, 1e+50 best solution, best possible 10753.969 (3156.08 seconds)
Cbc0010I After 23000 nodes, 9192 on tree, 1e+50 best solution, best possible 10754.06 (3168.98 seconds)
Cbc0010I After 23100 nodes, 9233 on tree, 1e+50 best solution, best possible 10754.461 (3181.66 seconds)
Cbc0010I After 23200 nodes, 9280 on tree, 1e+50 best solution, best possible 10754.938 (3194.73 seconds)
Cbc0010I After 23300 nodes, 9326 on tree, 1e+50 best solution, best possible 10755.811 (3208.18 seconds)
Cbc0010I After 23400 nodes, 9366 on tree, 1e+50 best solution, best possible 10756.512 (3221.17 seconds)
Cbc0010I After 23500 nodes, 9408 on tree, 1e+50 best solution, best possible 10756.78 (3233.89 seconds)
Cbc0010I After 23600 nodes, 9452 on tree, 1e+50 best solution, best possible 10756.851 (3246.69 seconds)
Cbc0010I After 23700 nodes, 9493 on tree, 1e+50 best solution, best possible 10757.002 (3259.64 seconds)
Cbc0010I After 23800 nodes, 9535 on tree, 1e+50 best solution, best possible 10757.246 (3272.51 seconds)
Cbc0010I After 23900 nodes, 9579 on tree, 1e+50 best solution, best possible 10757.48 (3285.42 seconds)
Cbc0010I After 24000 nodes, 9621 on tree, 1e+50 best solution, best possible 10757.739 (3298.12 seconds)
Cbc0010I After 24100 nodes, 9667 on tree, 1e+50 best solution, best possible 10757.82 (3311.25 seconds)
Cbc0010I After 24200 nodes, 9709 on tree, 1e+50 best solution, best possible 10758.214 (3324.29 seconds)
Cbc0010I After 24300 nodes, 9751 on tree, 1e+50 best solution, best possible 10758.707 (3337.12 seconds)
Cbc0010I After 24400 nodes, 9794 on tree, 1e+50 best solution, best possible 10759.173 (3349.84 seconds)
Cbc0010I After 24500 nodes, 9836 on tree, 1e+50 best solution, best possible 10759.642 (3362.96 seconds)
Cbc0010I After 24600 nodes, 9877 on tree, 1e+50 best solution, best possible 10760.043 (3375.58 seconds)
Cbc0010I After 24700 nodes, 9921 on tree, 1e+50 best solution, best possible 10760.142 (3389.01 seconds)
Cbc0010I After 24800 nodes, 9961 on tree, 1e+50 best solution, best possible 10762.183 (3401.71 seconds)
Cbc0010I After 24900 nodes, 10008 on tree, 1e+50 best solution, best possible 10762.433 (3414.45 seconds)
Cbc0010I After 25000 nodes, 10053 on tree, 1e+50 best solution, best possible 10762.494 (3427.36 seconds)
Cbc0010I After 25100 nodes, 10097 on tree, 1e+50 best solution, best possible 10762.584 (3440.23 seconds)
Cbc0010I After 25200 nodes, 10141 on tree, 1e+50 best solution, best possible 10762.896 (3452.98 seconds)
Cbc0020I Exiting on maximum time
Cbc0005I Partial search - best objective 1e+50 (best possible 10762.896), took 326305 iterations and 25267 nodes (3471.29 seconds)
Cbc0035I Maximum depth 479, 0 variables fixed on reduced cost

 	"Not finished"

Linearization cuts added at root node:       6471
Linearization cuts added in total:           6471  (separation time: 0.053621s)
Total solve time:                         3475.83s (3475.83s in branch-and-bound)
Lower bound:                              10762.9
Upper bound:                              11581.8  (gap: 7.61%)
Branch-and-bound nodes:                     25267
Stats: /tmp/jl_S9pmuB/model.nl 6090 [var]   30 [int] 6260 [con]  289 [aux]   6471 [root]     6471 [tot] 0.053621 [sep]  3475.83 [time]  3475.84 [bb]         1.076290e+04 [lower]         1.158182e+04 [upper]   25267 [nodes]
Performance of                           FBBT:	    596.999s,    39193 runs. fix:          0 shrnk:    1.74617 ubd:          0 2ubd:          0 infeas:          0
Performance of                           OBBT:	    6.62811s,        3 runs. fix:          0 shrnk:          0 ubd:          0 2ubd:          0 infeas:          0
ERROR: LoadError: MathOptInterface.GetAttributeNotAllowed{MathOptInterface.ObjectiveBound}: Getting attribute MathOptInterface.ObjectiveBound() cannot be performed: AmplNLWriter.Optimizer does not support getting the attribute MathOptInterface.ObjectiveBound(). You may want to use a `CachingOptimizer` in `AUTOMATIC` mode or you may need to call `reset_optimizer` before doing this operation if the `CachingOptimizer` is in `MANUAL` mode.
Stacktrace:
  [1] get_fallback(model::AmplNLWriter.Optimizer, attr::MathOptInterface.ObjectiveBound)
    @ MathOptInterface ~/.julia/packages/MathOptInterface/gLl4d/src/attributes.jl:409
  [2] get(::AmplNLWriter.Optimizer, ::MathOptInterface.ObjectiveBound)
    @ MathOptInterface ~/.julia/packages/MathOptInterface/gLl4d/src/attributes.jl:390
  [3] _get_model_attribute(model::MathOptInterface.Utilities.CachingOptimizer{AmplNLWriter.Optimizer, MathOptInterface.Utilities.UniversalFallback{MathOptInterface.Utilities.Model{Float64}}}, attr::MathOptInterface.ObjectiveBound)
    @ MathOptInterface.Utilities ~/.julia/packages/MathOptInterface/gLl4d/src/Utilities/cachingoptimizer.jl:865
  [4] get(model::MathOptInterface.Utilities.CachingOptimizer{AmplNLWriter.Optimizer, MathOptInterface.Utilities.UniversalFallback{MathOptInterface.Utilities.Model{Float64}}}, attr::MathOptInterface.ObjectiveBound)
    @ MathOptInterface.Utilities ~/.julia/packages/MathOptInterface/gLl4d/src/Utilities/cachingoptimizer.jl:900
  [5] get(b::MathOptInterface.Bridges.LazyBridgeOptimizer{MathOptInterface.Utilities.CachingOptimizer{AmplNLWriter.Optimizer, MathOptInterface.Utilities.UniversalFallback{MathOptInterface.Utilities.Model{Float64}}}}, attr::MathOptInterface.ObjectiveBound)
    @ MathOptInterface.Bridges ~/.julia/packages/MathOptInterface/gLl4d/src/Bridges/bridge_optimizer.jl:889
  [6] _get_model_attribute(model::MathOptInterface.Utilities.CachingOptimizer{MathOptInterface.Bridges.LazyBridgeOptimizer{MathOptInterface.Utilities.CachingOptimizer{AmplNLWriter.Optimizer, MathOptInterface.Utilities.UniversalFallback{MathOptInterface.Utilities.Model{Float64}}}}, MathOptInterface.Utilities.UniversalFallback{MathOptInterface.Utilities.Model{Float64}}}, attr::MathOptInterface.ObjectiveBound)
    @ MathOptInterface.Utilities ~/.julia/packages/MathOptInterface/gLl4d/src/Utilities/cachingoptimizer.jl:865
  [7] get(model::MathOptInterface.Utilities.CachingOptimizer{MathOptInterface.Bridges.LazyBridgeOptimizer{MathOptInterface.Utilities.CachingOptimizer{AmplNLWriter.Optimizer, MathOptInterface.Utilities.UniversalFallback{MathOptInterface.Utilities.Model{Float64}}}}, MathOptInterface.Utilities.UniversalFallback{MathOptInterface.Utilities.Model{Float64}}}, attr::MathOptInterface.ObjectiveBound)
    @ MathOptInterface.Utilities ~/.julia/packages/MathOptInterface/gLl4d/src/Utilities/cachingoptimizer.jl:900
  [8] _moi_get_result(model::MathOptInterface.Utilities.CachingOptimizer{MathOptInterface.Bridges.LazyBridgeOptimizer{MathOptInterface.Utilities.CachingOptimizer{AmplNLWriter.Optimizer, MathOptInterface.Utilities.UniversalFallback{MathOptInterface.Utilities.Model{Float64}}}}, MathOptInterface.Utilities.UniversalFallback{MathOptInterface.Utilities.Model{Float64}}}, args::MathOptInterface.ObjectiveBound)
    @ JuMP ~/.julia/packages/JuMP/i68GU/src/optimizer_interface.jl:1053
  [9] get(model::JuMP.Model, attr::MathOptInterface.ObjectiveBound)
    @ JuMP ~/.julia/packages/JuMP/i68GU/src/optimizer_interface.jl:1073
 [10] objective_bound(model::JuMP.Model)
    @ JuMP ~/.julia/packages/JuMP/i68GU/src/objective.jl:78
 [11] nl_uflp_nldep(filename::String, cost::Symbol, solver::AmplNLWriter.Optimizer, solver_params::Vector{Any}; solve::Bool, write_nl::Bool, with_cap_constraint::Bool)
    @ IterativePWLB ~/git/ipwlb/code/sources/IterativePWLB/src/nlsolver.jl:783
 [12] top-level scope
    @ ~/git/ipwlb/code/sources/IterativePWLB/test/couenne/uflp_nldep/script.jl:15
in expression starting at /home/ccontard/git/ipwlb/code/sources/IterativePWLB/test/couenne/uflp_nldep/script.jl:15
reading holmberg data file /home/ccontard/git/ipwlb/code/instances/uflp/holmberg/p60
